p cnf 45 317
-5 0
-6 0
-7 0
-8 0
-9 0
-10 0
-6  7  8  9 -10 -1 -11 0
-6  7  8  9 -10 -1 -12 0
-6  7  8  9 -10 -1 -13 0
-6  7  8  9 -10 -1 -14 0
-6  7  8  9 -10 -1 -15 0
 6  7  8  9  10 -1 -11 0
 6  7  8  9  10 -1 -12 0
 6  7  8  9  10 -1 -13 0
 6  7  8  9  10 -1 -14 0
 6  7  8  9  10 -1  15 0
 6  7  8  9 -10 -1 5 0
 6  7  8  9 -10  1 -11 0
 6  7  8  9 -10  1 -12 0
 6  7  8  9 -10  1 -13 0
 6  7  8  9 -10  1 -14 0
 6  7  8  9 -10  1 -15 0
 6  7  8  9  10  1  11 0
 6  7  8  9  10  1 -12 0
 6  7  8  9  10  1 -13 0
 6  7  8  9  10  1 -14 0
 6  7  8  9  10  1  15 0
-6  7  8  9 -10  1 5 0
-6  7  8  9  10  0
 6  7  8 -9  10  0
-6  7  8 -9  10  0
 6  7  8 -9 -10  0
-6  7  8 -9 -10  0
 6  7 -8  9  10  0
-6  7 -8  9  10  0
 6  7 -8  9 -10  0
-6  7 -8  9 -10  0
 6  7 -8 -9  10  0
-6  7 -8 -9  10  0
 6  7 -8 -9 -10  0
-6  7 -8 -9 -10  0
 6 -7  8  9  10  0
-6 -7  8  9  10  0
 6 -7  8  9 -10  0
-6 -7  8  9 -10  0
 6 -7  8 -9  10  0
-6 -7  8 -9  10  0
 6 -7  8 -9 -10  0
-6 -7  8 -9 -10  0
 6 -7 -8  9  10  0
-6 -7 -8  9  10  0
 6 -7 -8  9 -10  0
-6 -7 -8  9 -10  0
 6 -7 -8 -9  10  0
-6 -7 -8 -9  10  0
 6 -7 -8 -9 -10  0
-6 -7 -8 -9 -10  0
-11  12  13  14 -15 -2 -16 0
-11  12  13  14 -15 -2 -17 0
-11  12  13  14 -15 -2 -18 0
-11  12  13  14 -15 -2 -19 0
-11  12  13  14 -15 -2 -20 0
 11  12  13  14  15 -2 -16 0
 11  12  13  14  15 -2 -17 0
 11  12  13  14  15 -2 -18 0
 11  12  13  14  15 -2 -19 0
 11  12  13  14  15 -2  20 0
 11  12  13  14 -15 -2 5 0
 11  12  13  14 -15  2 -16 0
 11  12  13  14 -15  2 -17 0
 11  12  13  14 -15  2 -18 0
 11  12  13  14 -15  2 -19 0
 11  12  13  14 -15  2 -20 0
 11  12  13  14  15  2  16 0
 11  12  13  14  15  2 -17 0
 11  12  13  14  15  2 -18 0
 11  12  13  14  15  2 -19 0
 11  12  13  14  15  2  20 0
-11  12  13  14 -15  2 5 0
-11  12  13  14  15  0
 11  12  13 -14  15  0
-11  12  13 -14  15  0
 11  12  13 -14 -15  0
-11  12  13 -14 -15  0
 11  12 -13  14  15  0
-11  12 -13  14  15  0
 11  12 -13  14 -15  0
-11  12 -13  14 -15  0
 11  12 -13 -14  15  0
-11  12 -13 -14  15  0
 11  12 -13 -14 -15  0
-11  12 -13 -14 -15  0
 11 -12  13  14  15  0
-11 -12  13  14  15  0
 11 -12  13  14 -15  0
-11 -12  13  14 -15  0
 11 -12  13 -14  15  0
-11 -12  13 -14  15  0
 11 -12  13 -14 -15  0
-11 -12  13 -14 -15  0
 11 -12 -13  14  15  0
-11 -12 -13  14  15  0
 11 -12 -13  14 -15  0
-11 -12 -13  14 -15  0
 11 -12 -13 -14  15  0
-11 -12 -13 -14  15  0
 11 -12 -13 -14 -15  0
-11 -12 -13 -14 -15  0
-16  17  18  19 -20 -3 -21 0
-16  17  18  19 -20 -3 -22 0
-16  17  18  19 -20 -3 -23 0
-16  17  18  19 -20 -3 -24 0
-16  17  18  19 -20 -3 -25 0
 16  17  18  19  20 -3 -21 0
 16  17  18  19  20 -3 -22 0
 16  17  18  19  20 -3 -23 0
 16  17  18  19  20 -3 -24 0
 16  17  18  19  20 -3  25 0
 16  17  18  19 -20 -3 5 0
 16  17  18  19 -20  3 -21 0
 16  17  18  19 -20  3 -22 0
 16  17  18  19 -20  3 -23 0
 16  17  18  19 -20  3 -24 0
 16  17  18  19 -20  3 -25 0
 16  17  18  19  20  3  21 0
 16  17  18  19  20  3 -22 0
 16  17  18  19  20  3 -23 0
 16  17  18  19  20  3 -24 0
 16  17  18  19  20  3  25 0
-16  17  18  19 -20  3 5 0
-16  17  18  19  20  0
 16  17  18 -19  20  0
-16  17  18 -19  20  0
 16  17  18 -19 -20  0
-16  17  18 -19 -20  0
 16  17 -18  19  20  0
-16  17 -18  19  20  0
 16  17 -18  19 -20  0
-16  17 -18  19 -20  0
 16  17 -18 -19  20  0
-16  17 -18 -19  20  0
 16  17 -18 -19 -20  0
-16  17 -18 -19 -20  0
 16 -17  18  19  20  0
-16 -17  18  19  20  0
 16 -17  18  19 -20  0
-16 -17  18  19 -20  0
 16 -17  18 -19  20  0
-16 -17  18 -19  20  0
 16 -17  18 -19 -20  0
-16 -17  18 -19 -20  0
 16 -17 -18  19  20  0
-16 -17 -18  19  20  0
 16 -17 -18  19 -20  0
-16 -17 -18  19 -20  0
 16 -17 -18 -19  20  0
-16 -17 -18 -19  20  0
 16 -17 -18 -19 -20  0
-16 -17 -18 -19 -20  0
-21  22  23  24 -25 -4 -26 0
-21  22  23  24 -25 -4 -27 0
-21  22  23  24 -25 -4 -28 0
-21  22  23  24 -25 -4 -29 0
-21  22  23  24 -25 -4 -30 0
 21  22  23  24  25 -4 -26 0
 21  22  23  24  25 -4 -27 0
 21  22  23  24  25 -4 -28 0
 21  22  23  24  25 -4 -29 0
 21  22  23  24  25 -4  30 0
 21  22  23  24 -25 -4 5 0
 21  22  23  24 -25  4 -26 0
 21  22  23  24 -25  4 -27 0
 21  22  23  24 -25  4 -28 0
 21  22  23  24 -25  4 -29 0
 21  22  23  24 -25  4 -30 0
 21  22  23  24  25  4  26 0
 21  22  23  24  25  4 -27 0
 21  22  23  24  25  4 -28 0
 21  22  23  24  25  4 -29 0
 21  22  23  24  25  4  30 0
-21  22  23  24 -25  4 5 0
-21  22  23  24  25  0
 21  22  23 -24  25  0
-21  22  23 -24  25  0
 21  22  23 -24 -25  0
-21  22  23 -24 -25  0
 21  22 -23  24  25  0
-21  22 -23  24  25  0
 21  22 -23  24 -25  0
-21  22 -23  24 -25  0
 21  22 -23 -24  25  0
-21  22 -23 -24  25  0
 21  22 -23 -24 -25  0
-21  22 -23 -24 -25  0
 21 -22  23  24  25  0
-21 -22  23  24  25  0
 21 -22  23  24 -25  0
-21 -22  23  24 -25  0
 21 -22  23 -24  25  0
-21 -22  23 -24  25  0
 21 -22  23 -24 -25  0
-21 -22  23 -24 -25  0
 21 -22 -23  24  25  0
-21 -22 -23  24  25  0
 21 -22 -23  24 -25  0
-21 -22 -23  24 -25  0
 21 -22 -23 -24  25  0
-21 -22 -23 -24  25  0
 21 -22 -23 -24 -25  0
-21 -22 -23 -24 -25  0
-31 0
-32 0
-33 0
-34 0
-35 0
-31  32  33  34 -35 -2 -36 0
-31  32  33  34 -35 -2 -37 0
-31  32  33  34 -35 -2 -38 0
-31  32  33  34 -35 -2 -39 0
-31  32  33  34 -35 -2 -40 0
 31  32  33  34  35 -2 -36 0
 31  32  33  34  35 -2 -37 0
 31  32  33  34  35 -2 -38 0
 31  32  33  34  35 -2 -39 0
 31  32  33  34  35 -2  40 0
 31  32  33  34 -35 -2 5 0
 31  32  33  34 -35  2 -36 0
 31  32  33  34 -35  2 -37 0
 31  32  33  34 -35  2 -38 0
 31  32  33  34 -35  2 -39 0
 31  32  33  34 -35  2 -40 0
 31  32  33  34  35  2  36 0
 31  32  33  34  35  2 -37 0
 31  32  33  34  35  2 -38 0
 31  32  33  34  35  2 -39 0
 31  32  33  34  35  2  40 0
-31  32  33  34 -35  2 5 0
-31  32  33  34  35  0
 31  32  33 -34  35  0
-31  32  33 -34  35  0
 31  32  33 -34 -35  0
-31  32  33 -34 -35  0
 31  32 -33  34  35  0
-31  32 -33  34  35  0
 31  32 -33  34 -35  0
-31  32 -33  34 -35  0
 31  32 -33 -34  35  0
-31  32 -33 -34  35  0
 31  32 -33 -34 -35  0
-31  32 -33 -34 -35  0
 31 -32  33  34  35  0
-31 -32  33  34  35  0
 31 -32  33  34 -35  0
-31 -32  33  34 -35  0
 31 -32  33 -34  35  0
-31 -32  33 -34  35  0
 31 -32  33 -34 -35  0
-31 -32  33 -34 -35  0
 31 -32 -33  34  35  0
-31 -32 -33  34  35  0
 31 -32 -33  34 -35  0
-31 -32 -33  34 -35  0
 31 -32 -33 -34  35  0
-31 -32 -33 -34  35  0
 31 -32 -33 -34 -35  0
-31 -32 -33 -34 -35  0
-36  37  38  39 -40 -4 -41 0
-36  37  38  39 -40 -4 -42 0
-36  37  38  39 -40 -4 -43 0
-36  37  38  39 -40 -4 -44 0
-36  37  38  39 -40 -4 -45 0
 36  37  38  39  40 -4 -41 0
 36  37  38  39  40 -4 -42 0
 36  37  38  39  40 -4 -43 0
 36  37  38  39  40 -4 -44 0
 36  37  38  39  40 -4  45 0
 36  37  38  39 -40 -4 5 0
 36  37  38  39 -40  4 -41 0
 36  37  38  39 -40  4 -42 0
 36  37  38  39 -40  4 -43 0
 36  37  38  39 -40  4 -44 0
 36  37  38  39 -40  4 -45 0
 36  37  38  39  40  4  41 0
 36  37  38  39  40  4 -42 0
 36  37  38  39  40  4 -43 0
 36  37  38  39  40  4 -44 0
 36  37  38  39  40  4  45 0
-36  37  38  39 -40  4 5 0
-36  37  38  39  40  0
 36  37  38 -39  40  0
-36  37  38 -39  40  0
 36  37  38 -39 -40  0
-36  37  38 -39 -40  0
 36  37 -38  39  40  0
-36  37 -38  39  40  0
 36  37 -38  39 -40  0
-36  37 -38  39 -40  0
 36  37 -38 -39  40  0
-36  37 -38 -39  40  0
 36  37 -38 -39 -40  0
-36  37 -38 -39 -40  0
 36 -37  38  39  40  0
-36 -37  38  39  40  0
 36 -37  38  39 -40  0
-36 -37  38  39 -40  0
 36 -37  38 -39  40  0
-36 -37  38 -39  40  0
 36 -37  38 -39 -40  0
-36 -37  38 -39 -40  0
 36 -37 -38  39  40  0
-36 -37 -38  39  40  0
 36 -37 -38  39 -40  0
-36 -37 -38  39 -40  0
 36 -37 -38 -39  40  0
-36 -37 -38 -39  40  0
 36 -37 -38 -39 -40  0
-36 -37 -38 -39 -40  0
